\ENCODING=ISO-8859-1
\Problem name: 

Maximize
 obj: 183.550479944856 d_0 + 176.978363511844 d_1 + 144.434875919866 d_2
      + 273.998029787577 d_3 + 236.403320447145 d_4 + 249.446065049826 d_5
      + 181.802118885184 d_6 + 422.29763540672 d_7 + 265.301009962588 d_8
      + 363.529020312462 d_9 + 324.480548339962 d_10 + 164.665686177847 d_11
      + 328.467545267778 d_12 + 209.146991124346 d_13 + 323.140954716442 d_14
      + 91.7752399724281 d_15 + 275.186076280199 d_16 + 91.7752399724281 d_17
      + 320.662311621979 d_18 + 185.832486737008 d_19 + 144.917065322924 d_20
      + 69.4675246822197 d_21 + 328.467545267778 d_22 + 363.529020312463 d_23
      + 393.707704965601 d_24 + 303.969906240187 d_25 + 138.131022857915 d_26
      + 227.1356761008 d_27 + 96.8645918803281 d_28 + 194.837082491818 d_29
      + 339.351941242776 d_30 + 422.7871640518 d_31 + 196.255616618966 d_32
      + 261.351941242776 d_33 + 161.409496156128 d_34 + 119.996625444132 d_35
      + 242.085510265189 d_36 + 244.993250888264 d_37 + 266.704208789164 d_38
      + 273.085510265189 d_39 + 218.611954989541 d_40 + 194.517982349669 d_41
      + 385.836735602671 d_42 + 222.448713790766 d_43 + 369.441293150676 d_44
      + 303.577194638651 d_45 + 316.369210920451 d_46 + 167.293594899825 d_47
      + 55.5934266175557 d_48 + 340.565879615105 d_49 + 153.832486737008 d_50
      + 217.262690251313 d_51 + 445.094879342009 d_52 + 252.38057008381 d_53
      + 240.924057675788 d_54 + 48.804413143903 d_55 + 218.832486737008 d_56
      + 230.710289336867 d_57 + 151.409496156128 d_58 + 215.694157562948 d_59
      + 220.779488838091 d_60 + 249.251375227766 d_61 + 118.965157895338 d_62
      + 106.888139250591 d_63 + 268.608826287806 d_64 + 308.704208789164 d_65
      + 274.618877514021 d_66 + 233.948185863974 d_67 + 236.301009962588 d_68
      + 283.852114687361 d_69 + 257.239289063769 d_70 + 299.186348060063 d_71
      + 308.186076280199 d_72 + 183.397453835502 d_73 + 266.919645302612 d_74
      + 165.750107307848 d_75 + 261.544399397152 d_76 + 363.662311621979 d_77
      + 169.653214325025 d_78 + 245.924057675788 d_79 + 93.5216478480639 d_80
      + 72.1196445318848 d_81 + 278.351941242776 d_82 + 129.891388327873 d_83
      + 294.18017235108 d_84 + 250.38057008381 d_85 + 105.476299474299 d_86
      + 95.804413143903 d_87 + 328.467545267778 d_88 + 139.370278521491 d_89
      + 149.91781801215 d_90 + 300.140954716442 d_91 + 294.061495630243 d_92
      + 270.480548339962 d_93 + 335.239289063769 d_94 + 353.961316252627 d_95
      + 337.782776655747 d_96 + 184.390968199156 d_97 + 246.1523138798 d_98
      + 112.804413143903 d_99
Subject To
 c1: 173 d_0 + 208 d_1 + 185 d_2 + 293 d_3 + 252 d_4 + 231 d_5 + 177 d_6
     + 401 d_7 + 263 d_8 + 335 d_9 + 334 d_10 + 211 d_11 + 304 d_12 + 238 d_13
     + 299 d_14 + 91 d_15 + 309 d_16 + 91 d_17 + 348 d_18 + 221 d_19 + 140 d_20
     + 69 d_21 + 302 d_22 + 335 d_23 + 369 d_24 + 306 d_25 + 168 d_26
     + 265 d_27 + 123 d_28 + 248 d_29 + 320 d_30 + 394 d_31 + 244 d_32
     + 319 d_33 + 227 d_34 + 147 d_35 + 278 d_36 + 290 d_37 + 296 d_38
     + 285 d_39 + 206 d_40 + 203 d_41 + 364 d_42 + 266 d_43 + 360 d_44
     + 292 d_45 + 293 d_46 + 231 d_47 + 116 d_48 + 319 d_49 + 220 d_50
     + 269 d_51 + 416 d_52 + 266 d_53 + 290 d_54 + 132 d_55 + 223 d_56
     + 224 d_57 + 233 d_58 + 244 d_59 + 231 d_60 + 299 d_61 + 151 d_62
     + 179 d_63 + 259 d_64 + 294 d_65 + 304 d_66 + 255 d_67 + 258 d_68
     + 262 d_69 + 313 d_70 + 309 d_71 + 314 d_72 + 211 d_73 + 264 d_74
     + 211 d_75 + 241 d_76 + 351 d_77 + 222 d_78 + 285 d_79 + 98 d_80
     + 162 d_81 + 324 d_82 + 172 d_83 + 332 d_84 + 267 d_85 + 189 d_86
     + 131 d_87 + 303 d_88 + 194 d_89 + 206 d_90 + 299 d_91 + 274 d_92
     + 328 d_93 + 316 d_94 + 396 d_95 + 330 d_96 + 199 d_97 + 275 d_98
     + 129 d_99 <= 798
 c2: 173 d_0 + 208 d_1 + 185 d_2 + 293 d_3 + 252 d_4 + 231 d_5 + 177 d_6
     + 401 d_7 + 263 d_8 + 335 d_9 + 334 d_10 + 211 d_11 + 304 d_12 + 238 d_13
     + 299 d_14 + 91 d_15 + 309 d_16 + 91 d_17 + 348 d_18 + 221 d_19 + 140 d_20
     + 69 d_21 + 302 d_22 + 335 d_23 + 369 d_24 + 306 d_25 + 168 d_26
     + 265 d_27 + 123 d_28 + 248 d_29 + 320 d_30 + 394 d_31 + 244 d_32
     + 319 d_33 + 227 d_34 + 147 d_35 + 278 d_36 + 290 d_37 + 296 d_38
     + 285 d_39 + 206 d_40 + 203 d_41 + 364 d_42 + 266 d_43 + 360 d_44
     + 292 d_45 + 293 d_46 + 231 d_47 + 116 d_48 + 319 d_49 + 220 d_50
     + 269 d_51 + 416 d_52 + 266 d_53 + 290 d_54 + 132 d_55 + 223 d_56
     + 224 d_57 + 233 d_58 + 244 d_59 + 231 d_60 + 299 d_61 + 151 d_62
     + 179 d_63 + 259 d_64 + 294 d_65 + 304 d_66 + 255 d_67 + 258 d_68
     + 262 d_69 + 313 d_70 + 309 d_71 + 314 d_72 + 211 d_73 + 264 d_74
     + 211 d_75 + 241 d_76 + 351 d_77 + 222 d_78 + 285 d_79 + 98 d_80
     + 162 d_81 + 324 d_82 + 172 d_83 + 332 d_84 + 267 d_85 + 189 d_86
     + 131 d_87 + 303 d_88 + 194 d_89 + 206 d_90 + 299 d_91 + 274 d_92
     + 328 d_93 + 316 d_94 + 396 d_95 + 330 d_96 + 199 d_97 + 275 d_98
     + 129 d_99 <= 760
 c3: 173 d_0 + 208 d_1 + 185 d_2 + 293 d_3 + 252 d_4 + 231 d_5 + 177 d_6
     + 401 d_7 + 263 d_8 + 335 d_9 + 334 d_10 + 211 d_11 + 304 d_12 + 238 d_13
     + 299 d_14 + 91 d_15 + 309 d_16 + 91 d_17 + 348 d_18 + 221 d_19 + 140 d_20
     + 69 d_21 + 302 d_22 + 335 d_23 + 369 d_24 + 306 d_25 + 168 d_26
     + 265 d_27 + 123 d_28 + 248 d_29 + 320 d_30 + 394 d_31 + 244 d_32
     + 319 d_33 + 227 d_34 + 147 d_35 + 278 d_36 + 290 d_37 + 296 d_38
     + 285 d_39 + 206 d_40 + 203 d_41 + 364 d_42 + 266 d_43 + 360 d_44
     + 292 d_45 + 293 d_46 + 231 d_47 + 116 d_48 + 319 d_49 + 220 d_50
     + 269 d_51 + 416 d_52 + 266 d_53 + 290 d_54 + 132 d_55 + 223 d_56
     + 224 d_57 + 233 d_58 + 244 d_59 + 231 d_60 + 299 d_61 + 151 d_62
     + 179 d_63 + 259 d_64 + 294 d_65 + 304 d_66 + 255 d_67 + 258 d_68
     + 262 d_69 + 313 d_70 + 309 d_71 + 314 d_72 + 211 d_73 + 264 d_74
     + 211 d_75 + 241 d_76 + 351 d_77 + 222 d_78 + 285 d_79 + 98 d_80
     + 162 d_81 + 324 d_82 + 172 d_83 + 332 d_84 + 267 d_85 + 189 d_86
     + 131 d_87 + 303 d_88 + 194 d_89 + 206 d_90 + 299 d_91 + 274 d_92
     + 328 d_93 + 316 d_94 + 396 d_95 + 330 d_96 + 199 d_97 + 275 d_98
     + 129 d_99 <= 810
 c4: 173 d_0 + 208 d_1 + 185 d_2 + 293 d_3 + 252 d_4 + 231 d_5 + 177 d_6
     + 401 d_7 + 263 d_8 + 335 d_9 + 334 d_10 + 211 d_11 + 304 d_12 + 238 d_13
     + 299 d_14 + 91 d_15 + 309 d_16 + 91 d_17 + 348 d_18 + 221 d_19 + 140 d_20
     + 69 d_21 + 302 d_22 + 335 d_23 + 369 d_24 + 306 d_25 + 168 d_26
     + 265 d_27 + 123 d_28 + 248 d_29 + 320 d_30 + 394 d_31 + 244 d_32
     + 319 d_33 + 227 d_34 + 147 d_35 + 278 d_36 + 290 d_37 + 296 d_38
     + 285 d_39 + 206 d_40 + 203 d_41 + 364 d_42 + 266 d_43 + 360 d_44
     + 292 d_45 + 293 d_46 + 231 d_47 + 116 d_48 + 319 d_49 + 220 d_50
     + 269 d_51 + 416 d_52 + 266 d_53 + 290 d_54 + 132 d_55 + 223 d_56
     + 224 d_57 + 233 d_58 + 244 d_59 + 231 d_60 + 299 d_61 + 151 d_62
     + 179 d_63 + 259 d_64 + 294 d_65 + 304 d_66 + 255 d_67 + 258 d_68
     + 262 d_69 + 313 d_70 + 309 d_71 + 314 d_72 + 211 d_73 + 264 d_74
     + 211 d_75 + 241 d_76 + 351 d_77 + 222 d_78 + 285 d_79 + 98 d_80
     + 162 d_81 + 324 d_82 + 172 d_83 + 332 d_84 + 267 d_85 + 189 d_86
     + 131 d_87 + 303 d_88 + 194 d_89 + 206 d_90 + 299 d_91 + 274 d_92
     + 328 d_93 + 316 d_94 + 396 d_95 + 330 d_96 + 199 d_97 + 275 d_98
     + 129 d_99 <= 824
 c5: 173 d_0 + 208 d_1 + 185 d_2 + 293 d_3 + 252 d_4 + 231 d_5 + 177 d_6
     + 401 d_7 + 263 d_8 + 335 d_9 + 334 d_10 + 211 d_11 + 304 d_12 + 238 d_13
     + 299 d_14 + 91 d_15 + 309 d_16 + 91 d_17 + 348 d_18 + 221 d_19 + 140 d_20
     + 69 d_21 + 302 d_22 + 335 d_23 + 369 d_24 + 306 d_25 + 168 d_26
     + 265 d_27 + 123 d_28 + 248 d_29 + 320 d_30 + 394 d_31 + 244 d_32
     + 319 d_33 + 227 d_34 + 147 d_35 + 278 d_36 + 290 d_37 + 296 d_38
     + 285 d_39 + 206 d_40 + 203 d_41 + 364 d_42 + 266 d_43 + 360 d_44
     + 292 d_45 + 293 d_46 + 231 d_47 + 116 d_48 + 319 d_49 + 220 d_50
     + 269 d_51 + 416 d_52 + 266 d_53 + 290 d_54 + 132 d_55 + 223 d_56
     + 224 d_57 + 233 d_58 + 244 d_59 + 231 d_60 + 299 d_61 + 151 d_62
     + 179 d_63 + 259 d_64 + 294 d_65 + 304 d_66 + 255 d_67 + 258 d_68
     + 262 d_69 + 313 d_70 + 309 d_71 + 314 d_72 + 211 d_73 + 264 d_74
     + 211 d_75 + 241 d_76 + 351 d_77 + 222 d_78 + 285 d_79 + 98 d_80
     + 162 d_81 + 324 d_82 + 172 d_83 + 332 d_84 + 267 d_85 + 189 d_86
     + 131 d_87 + 303 d_88 + 194 d_89 + 206 d_90 + 299 d_91 + 274 d_92
     + 328 d_93 + 316 d_94 + 396 d_95 + 330 d_96 + 199 d_97 + 275 d_98
     + 129 d_99 <= 868
Bounds
 0 <= d_0 <= 1
 0 <= d_1 <= 1
 0 <= d_2 <= 1
 0 <= d_3 <= 1
 0 <= d_4 <= 1
 0 <= d_5 <= 1
 0 <= d_6 <= 1
 0 <= d_7 <= 1
 0 <= d_8 <= 1
 0 <= d_9 <= 1
 0 <= d_10 <= 1
 0 <= d_11 <= 1
 0 <= d_12 <= 1
 0 <= d_13 <= 1
 0 <= d_14 <= 1
 0 <= d_15 <= 1
 0 <= d_16 <= 1
 0 <= d_17 <= 1
 0 <= d_18 <= 1
 0 <= d_19 <= 1
 0 <= d_20 <= 1
 0 <= d_21 <= 1
 0 <= d_22 <= 1
 0 <= d_23 <= 1
 0 <= d_24 <= 1
 0 <= d_25 <= 1
 0 <= d_26 <= 1
 0 <= d_27 <= 1
 0 <= d_28 <= 1
 0 <= d_29 <= 1
 0 <= d_30 <= 1
 0 <= d_31 <= 1
 0 <= d_32 <= 1
 0 <= d_33 <= 1
 0 <= d_34 <= 1
 0 <= d_35 <= 1
 0 <= d_36 <= 1
 0 <= d_37 <= 1
 0 <= d_38 <= 1
 0 <= d_39 <= 1
 0 <= d_40 <= 1
 0 <= d_41 <= 1
 0 <= d_42 <= 1
 0 <= d_43 <= 1
 0 <= d_44 <= 1
 0 <= d_45 <= 1
 0 <= d_46 <= 1
 0 <= d_47 <= 1
 0 <= d_48 <= 1
 0 <= d_49 <= 1
 0 <= d_50 <= 1
 0 <= d_51 <= 1
 0 <= d_52 <= 1
 0 <= d_53 <= 1
 0 <= d_54 <= 1
 0 <= d_55 <= 1
 0 <= d_56 <= 1
 0 <= d_57 <= 1
 0 <= d_58 <= 1
 0 <= d_59 <= 1
 0 <= d_60 <= 1
 0 <= d_61 <= 1
 0 <= d_62 <= 1
 0 <= d_63 <= 1
 0 <= d_64 <= 1
 0 <= d_65 <= 1
 0 <= d_66 <= 1
 0 <= d_67 <= 1
 0 <= d_68 <= 1
 0 <= d_69 <= 1
 0 <= d_70 <= 1
 0 <= d_71 <= 1
 0 <= d_72 <= 1
 0 <= d_73 <= 1
 0 <= d_74 <= 1
 0 <= d_75 <= 1
 0 <= d_76 <= 1
 0 <= d_77 <= 1
 0 <= d_78 <= 1
 0 <= d_79 <= 1
 0 <= d_80 <= 1
 0 <= d_81 <= 1
 0 <= d_82 <= 1
 0 <= d_83 <= 1
 0 <= d_84 <= 1
 0 <= d_85 <= 1
 0 <= d_86 <= 1
 0 <= d_87 <= 1
 0 <= d_88 <= 1
 0 <= d_89 <= 1
 0 <= d_90 <= 1
 0 <= d_91 <= 1
 0 <= d_92 <= 1
 0 <= d_93 <= 1
 0 <= d_94 <= 1
 0 <= d_95 <= 1
 0 <= d_96 <= 1
 0 <= d_97 <= 1
 0 <= d_98 <= 1
 0 <= d_99 <= 1
Binaries
 d_0  d_1  d_2  d_3  d_4  d_5  d_6  d_7  d_8  d_9  d_10  d_11  d_12  d_13 
 d_14  d_15  d_16  d_17  d_18  d_19  d_20  d_21  d_22  d_23  d_24  d_25  d_26 
 d_27  d_28  d_29  d_30  d_31  d_32  d_33  d_34  d_35  d_36  d_37  d_38  d_39 
 d_40  d_41  d_42  d_43  d_44  d_45  d_46  d_47  d_48  d_49  d_50  d_51  d_52 
 d_53  d_54  d_55  d_56  d_57  d_58  d_59  d_60  d_61  d_62  d_63  d_64  d_65 
 d_66  d_67  d_68  d_69  d_70  d_71  d_72  d_73  d_74  d_75  d_76  d_77  d_78 
 d_79  d_80  d_81  d_82  d_83  d_84  d_85  d_86  d_87  d_88  d_89  d_90  d_91 
 d_92  d_93  d_94  d_95  d_96  d_97  d_98  d_99 
End
